c Output_time 26.03.2020 18:13:32_+0100 1585242812471864756
c ** Program information **
c program_name                          "QBRG_debug"
c version                               "0.3.20"
c date                                  "25.3.2020"
c gid_id                                "673970833836058123f633335630c185360d632e"
c author                                "Oliver Kullmann"
c url                                   "https://github.com/OKullmann/oklibrary/blob/master/Satisfiability/Transformers/Generators/Random/QBRG.cpp"
c ** Machine information **
c machine_name                          "chyna-Lenovo-G50-70"
c bogomips                              3791.08
c ** Compilation information **
c compiler_version                      "g++ 7.5.0"
c compilation_date                      "Mar_26_2020 11:16:30"
c compilation_options                   "--std=c++17 -pedantic -fmax-errors=5 -Wall -Wextra -g -D_GLIBCXX_DEBUG"
c NDEBUG                                0
c OPTIMIZE                              0
c ** Parameters **
c command-line                          "./QBRG_debug" "e40 a40 40" "593*1,1|2-2,1|3-3,1" "" "1,t" ""
c output                                "QuBlRaGe_120_593_1585242812352672263.qdimacs"
c options                               "filtered,renamed"
c num_quantifier_blocks                 3
c  quantifier_blocks                    1:e1-40 2:a41-80 3:e81-120
c num_clause-blocks                     1
c  clause-blocks                        593 * {1-40,1,1/2} | {41-80,1,1/2} | {81-120,1,1/2}
c num_e-seeds                           30+2=32
c  e-seeds                              1 0 1 0 4 120 2 40 1 40 0 40 1 593 3 1 1 1 1 2 2 2 1 1 2 3 3 1 1 2 1 1585242812352671392
p cnf 120 593
e 1 2 3 4 5 6 7 8 9 10 11 12 13 14 15 16 17 18 19 20 21 22 23 24 25 26 27 28 29 30 31 32 33 34 35 36 37 38 39 40 0
a 41 42 43 44 45 46 47 48 49 50 51 52 53 54 55 56 57 58 59 60 61 62 63 64 65 66 67 68 69 70 71 72 73 74 75 76 77 78 79 80 0
e 81 82 83 84 85 86 87 88 89 90 91 92 93 94 95 96 97 98 99 100 101 102 103 104 105 106 107 108 109 110 111 112 113 114 115 116 117 118 119 120 0
6 -42 -81 0
28 -47 -81 0
-32 64 -81 0
-35 -76 -81 0
32 -41 81 0
-13 -61 81 0
-32 -74 81 0
40 -76 81 0
-16 48 -82 0
13 -59 -82 0
4 59 -82 0
30 -63 -82 0
14 -64 -82 0
31 -71 -82 0
17 72 -82 0
-3 73 -82 0
-35 73 -82 0
23 -75 -82 0
18 78 -82 0
-24 46 82 0
-29 57 82 0
-24 -60 82 0
-25 60 82 0
3 -62 82 0
-9 63 82 0
30 -66 82 0
-27 -68 82 0
-31 -41 -83 0
18 -58 -83 0
-5 58 -83 0
3 59 -83 0
7 64 -83 0
-34 64 -83 0
17 72 -83 0
38 -75 -83 0
-4 42 83 0
-33 42 83 0
-40 -44 83 0
-7 51 83 0
29 -55 83 0
-9 55 83 0
-14 57 83 0
30 -58 83 0
20 -61 83 0
-16 64 83 0
9 -65 83 0
40 -67 83 0
-17 71 83 0
-38 -41 -84 0
26 49 -84 0
-33 -51 -84 0
17 -53 -84 0
-25 -67 -84 0
-36 68 -84 0
-2 -70 -84 0
-19 76 -84 0
-4 43 84 0
-21 -50 84 0
18 -53 84 0
34 62 84 0
34 -64 84 0
15 -69 84 0
8 69 84 0
-13 -56 -85 0
-23 -58 -85 0
-16 -59 -85 0
-12 -61 -85 0
12 -57 85 0
-1 -74 85 0
24 80 85 0
-29 80 85 0
-17 56 -86 0
9 62 -86 0
25 -74 -86 0
-21 -77 -86 0
-12 -78 -86 0
37 -79 -86 0
11 -80 -86 0
-26 -44 86 0
2 -55 86 0
14 58 86 0
37 59 86 0
2 -61 86 0
-30 -64 86 0
-22 -68 86 0
33 -75 86 0
38 -48 -87 0
13 48 -87 0
-16 -51 -87 0
-19 -54 -87 0
-12 57 -87 0
8 -60 -87 0
30 -61 -87 0
21 67 -87 0
32 -75 -87 0
-26 75 -87 0
-33 76 -87 0
17 -78 -87 0
-19 -45 87 0
13 -46 87 0
4 -51 87 0
-24 -56 87 0
-14 57 87 0
14 -64 87 0
-39 66 87 0
26 -44 -88 0
-31 45 -88 0
-18 -51 -88 0
31 -62 -88 0
-26 68 -88 0
7 -69 -88 0
-23 74 -88 0
12 75 -88 0
-23 -58 88 0
6 -59 88 0
36 -62 88 0
-36 -79 88 0
-23 42 -89 0
6 46 -89 0
-31 -55 -89 0
-37 61 -89 0
17 -66 -89 0
-6 -75 -89 0
-11 -41 89 0
-3 -47 89 0
-38 -62 89 0
13 -63 89 0
10 -64 89 0
-2 65 89 0
-7 -67 89 0
-8 -69 89 0
-30 -73 89 0
23 74 89 0
38 -76 89 0
26 77 89 0
26 48 -90 0
-38 -59 -90 0
-5 60 -90 0
-13 -55 90 0
6 -67 90 0
25 67 90 0
-7 -70 90 0
29 -72 90 0
12 -73 90 0
-1 74 90 0
-16 -75 90 0
12 79 90 0
-33 -49 -91 0
9 -52 -91 0
-5 -60 -91 0
35 65 -91 0
10 73 -91 0
-5 -78 -91 0
-22 -79 -91 0
31 41 91 0
-19 -47 91 0
17 50 91 0
-28 -51 91 0
-33 51 91 0
-32 52 91 0
20 -54 91 0
27 55 91 0
-20 56 91 0
-29 -57 91 0
33 -64 91 0
10 76 91 0
-19 -77 91 0
-39 -79 91 0
-6 -80 91 0
36 -41 -92 0
-9 43 -92 0
-32 -57 -92 0
15 58 -92 0
33 58 -92 0
10 -63 -92 0
-3 64 -92 0
-24 73 -92 0
-19 -75 -92 0
28 -42 92 0
7 55 92 0
27 -60 92 0
-3 60 92 0
-40 64 92 0
-10 -69 92 0
29 48 -93 0
17 57 -93 0
-21 -76 -93 0
-30 50 93 0
-23 -53 93 0
-26 60 93 0
16 65 93 0
-33 -68 93 0
-20 42 -94 0
-21 42 -94 0
-12 46 -94 0
36 -49 -94 0
-26 49 -94 0
24 54 -94 0
25 54 -94 0
19 -56 -94 0
17 56 -94 0
-27 65 -94 0
38 68 -94 0
8 74 -94 0
23 79 -94 0
-32 -80 -94 0
17 -41 94 0
-6 47 94 0
-10 54 94 0
27 -71 94 0
32 -73 94 0
1 78 94 0
16 47 -95 0
-6 -54 -95 0
-33 59 -95 0
2 62 -95 0
-14 62 -95 0
18 -65 -95 0
-3 -68 -95 0
-35 -72 -95 0
-16 80 -95 0
-13 52 95 0
-18 -54 95 0
-2 57 95 0
-35 42 -96 0
-32 50 -96 0
8 -61 -96 0
-10 62 -96 0
16 -63 -96 0
-38 63 -96 0
18 64 -96 0
15 -65 -96 0
12 69 -96 0
-28 69 -96 0
-30 69 -96 0
32 69 -96 0
9 74 -96 0
37 -80 -96 0
-30 -41 96 0
3 42 96 0
16 45 96 0
-27 -54 96 0
40 -54 96 0
6 -56 96 0
-4 56 96 0
10 61 96 0
-27 61 96 0
-11 -67 96 0
37 -71 96 0
-39 42 -97 0
34 -43 -97 0
-30 51 -97 0
-26 56 -97 0
23 -62 -97 0
26 -71 -97 0
33 74 -97 0
-35 -78 -97 0
21 -43 97 0
3 52 97 0
32 -64 97 0
3 -69 97 0
27 -72 97 0
21 78 97 0
-35 -80 97 0
-5 -44 -98 0
-8 44 -98 0
14 -47 -98 0
35 56 -98 0
21 -65 -98 0
16 66 -98 0
17 67 -98 0
27 68 -98 0
-14 -71 -98 0
-10 -44 98 0
1 -48 98 0
-14 54 98 0
16 -65 98 0
-18 69 98 0
25 -70 98 0
29 -73 98 0
-15 -74 98 0
-24 -80 98 0
-19 -41 -99 0
-35 46 -99 0
-38 -67 -99 0
-28 -70 -99 0
-25 -72 -99 0
-32 -75 -99 0
10 -79 -99 0
-26 -41 99 0
17 41 99 0
5 44 99 0
-39 -47 99 0
-15 -48 99 0
10 49 99 0
40 50 99 0
4 53 99 0
-34 -57 99 0
14 58 99 0
24 -60 99 0
2 67 99 0
31 71 99 0
-1 -56 -100 0
-12 43 100 0
33 -51 100 0
-29 52 100 0
7 -64 100 0
-38 -64 100 0
2 -65 100 0
38 -71 100 0
-24 76 100 0
21 78 100 0
35 -80 100 0
-20 -42 -101 0
37 50 -101 0
29 54 -101 0
13 62 -101 0
30 -68 -101 0
-31 76 -101 0
-35 -78 -101 0
10 -79 -101 0
26 -47 101 0
-36 49 101 0
31 52 101 0
-18 -61 101 0
-22 -63 101 0
-13 67 101 0
28 -47 -102 0
-9 -52 -102 0
-21 55 -102 0
19 -61 -102 0
-32 -68 -102 0
-11 69 -102 0
38 -78 -102 0
16 -49 102 0
-25 -51 102 0
-24 52 102 0
-5 53 102 0
-32 -60 102 0
29 -80 102 0
21 80 102 0
-10 -45 -103 0
15 58 -103 0
-12 60 -103 0
-19 -61 -103 0
-26 -63 -103 0
9 -66 -103 0
16 -74 -103 0
8 61 103 0
10 68 103 0
-15 -70 103 0
-5 -73 103 0
30 -73 103 0
33 77 103 0
-12 47 -104 0
18 -59 -104 0
4 59 -104 0
31 59 -104 0
-30 -73 -104 0
-22 59 104 0
36 -61 104 0
-5 -62 104 0
11 -73 104 0
11 73 104 0
30 41 -105 0
35 41 -105 0
5 46 -105 0
-2 -62 -105 0
-22 -65 -105 0
23 67 -105 0
-37 68 -105 0
-10 -69 -105 0
21 -45 105 0
24 46 105 0
-11 -56 105 0
-13 61 105 0
-30 -67 105 0
-5 76 105 0
17 -45 -106 0
-3 48 -106 0
-40 52 -106 0
36 58 -106 0
33 -43 106 0
36 43 106 0
12 -47 106 0
-31 -59 106 0
-40 -59 106 0
18 68 106 0
38 -76 106 0
-14 78 106 0
-18 80 106 0
-9 42 -107 0
-17 45 -107 0
-9 48 -107 0
14 -54 -107 0
15 -65 -107 0
2 -68 -107 0
-3 45 107 0
17 -46 107 0
-9 -48 107 0
35 52 107 0
33 -67 107 0
-27 70 107 0
12 42 -108 0
5 -48 -108 0
12 61 -108 0
-31 -67 -108 0
38 68 -108 0
16 73 -108 0
-22 52 108 0
27 -57 108 0
37 60 108 0
24 -72 108 0
15 -76 108 0
17 45 -109 0
14 -50 -109 0
-31 52 -109 0
33 53 -109 0
-23 -58 -109 0
-10 -59 -109 0
15 59 -109 0
-16 62 -109 0
-19 -63 -109 0
36 63 -109 0
23 -65 -109 0
37 -66 -109 0
32 75 -109 0
15 -44 109 0
27 50 109 0
21 -55 109 0
-24 63 109 0
-17 -44 -110 0
-24 44 -110 0
30 -47 -110 0
-37 -49 -110 0
-39 -57 -110 0
1 -45 110 0
-30 -49 110 0
16 63 110 0
2 -73 110 0
-5 73 110 0
-5 77 110 0
-16 -43 -111 0
-36 43 -111 0
-26 -53 -111 0
33 57 -111 0
-31 -69 -111 0
31 73 -111 0
22 74 -111 0
5 53 111 0
26 55 111 0
33 63 111 0
27 -73 111 0
-35 76 111 0
16 80 111 0
-6 -43 -112 0
-6 46 -112 0
36 -47 -112 0
-15 50 -112 0
33 51 -112 0
-15 -53 -112 0
-1 -59 -112 0
7 -61 -112 0
-2 61 -112 0
26 -71 -112 0
-21 -78 -112 0
15 -42 112 0
22 49 112 0
-19 -57 112 0
20 72 112 0
29 75 112 0
-37 76 112 0
-5 -44 -113 0
-15 48 -113 0
-16 55 -113 0
-17 -57 -113 0
-38 64 -113 0
32 -42 113 0
9 52 113 0
-32 -64 113 0
-18 65 113 0
-6 -70 113 0
36 70 113 0
-15 -71 113 0
36 75 113 0
10 42 -114 0
30 -44 -114 0
-26 44 -114 0
-18 -50 -114 0
-7 -74 -114 0
25 45 114 0
-9 46 114 0
16 -47 114 0
-17 48 114 0
5 -53 114 0
8 65 114 0
30 72 114 0
22 75 114 0
-25 -76 114 0
-29 43 -115 0
-2 -46 -115 0
12 -47 -115 0
-31 -48 -115 0
11 53 -115 0
-30 66 -115 0
40 68 -115 0
36 -72 -115 0
2 76 -115 0
-16 77 -115 0
28 -42 115 0
6 -52 115 0
-21 -53 115 0
36 68 115 0
23 71 115 0
-20 72 115 0
-15 -43 -116 0
10 44 -116 0
-40 47 -116 0
19 -50 -116 0
-5 54 -116 0
9 -60 -116 0
-21 63 -116 0
-40 70 -116 0
40 -71 -116 0
-12 71 -116 0
-11 -74 -116 0
38 43 116 0
-29 -45 116 0
34 45 116 0
-33 53 116 0
23 54 116 0
-5 60 116 0
10 64 116 0
7 -75 116 0
1 78 116 0
23 54 -117 0
-12 61 -117 0
-9 -70 -117 0
9 70 -117 0
-22 75 -117 0
-37 78 -117 0
23 -80 -117 0
17 -44 117 0
-17 -47 117 0
-34 -51 117 0
-7 57 117 0
-7 59 117 0
37 -69 117 0
4 -71 117 0
-13 43 -118 0
-27 -48 -118 0
37 48 -118 0
-36 -51 -118 0
33 -58 -118 0
21 -59 -118 0
11 61 -118 0
-28 -70 -118 0
-7 70 -118 0
1 72 -118 0
-15 72 -118 0
-21 -75 -118 0
-30 -44 118 0
16 -45 118 0
29 -52 118 0
-39 -55 118 0
-24 62 118 0
20 -68 118 0
-15 -43 -119 0
14 57 -119 0
28 -58 -119 0
2 -79 -119 0
-39 46 119 0
-32 54 119 0
22 60 119 0
27 -62 119 0
-37 65 119 0
-15 71 119 0
22 71 119 0
-18 77 119 0
-6 46 -120 0
-36 50 -120 0
-33 -51 -120 0
31 -59 -120 0
-29 -73 -120 0
11 -41 120 0
-20 -44 120 0
-15 -51 120 0
19 59 120 0
-13 63 120 0
35 -69 120 0
-27 69 120 0
-40 -71 120 0
-21 79 120 0
